--- Job gams_0064_002_32_04_0.67_05_0.50_0.90_21_problem.txt Start 02/24/21 20:07:03 35.2.0 r33388c4 WEX-WEI x86 64bit/MS Windows
--- Applying:
    C:\Users\MariaSosnovskaya\GAMS35\gmsprmNT.txt
--- GAMS Parameters defined
    Input C:\Users\MariaSosnovskaya\Downloads\WfmGams3\problems\gams_0064_002_32_04_0.67_05_0.50_0.90_21_problem.txt
    ScrDir C:\Users\MariaSosnovskaya\Downloads\WfmGams3\225e\
    SysDir C:\Users\MariaSosnovskaya\GAMS35\
Licensee: GAMS Evaluation License                        S210124/0001AB-GEN
          Sobolev Institute of Mathematics, Discrete Optimization LaDCE1098
          C:\Users\MariaSosnovskaya\GAMS35\gamslice.txt
          Evaluation license: Not for commercial or production use
GAMS 35.2.0   Copyright (C) 1987-2021 GAMS Development. All rights reserved
--- Starting compilation
--- gams_0064_002_32_04_0.67_05_0.50_0.90_21_problem.txt(22) 3 Mb
--- . gams_0064_002_32_04_0.67_05_0.50_0.90_21.inc(6600) 3 Mb
--- gams_0064_002_32_04_0.67_05_0.50_0.90_21_problem.txt(98) 3 Mb
--- Starting execution: elapsed 0:00:00.034
--- gams_0064_002_32_04_0.67_05_0.50_0.90_21_problem.txt(6621) 4 Mb
--- Generating MIP model mymodel
--- gams_0064_002_32_04_0.67_05_0.50_0.90_21_problem.txt(6677) 9 Mb
---   16,769 rows  12,289 columns  56,225 non-zeroes
---   12,288 discrete-columns
--- Executing CPLEX (Solvelink=2): elapsed 0:00:00.160

IBM ILOG CPLEX   35.2.0 r33388c4 Released Jun 02, 2021 WEI x86 64bit/MS Window

--- GAMS/Cplex licensed for continuous and discrete problems.
--- Space for names approximately 0.61 Mb
--- Use option 'names no' to turn use of names off
--- GMO memory 6.31 Mb (peak 6.40 Mb)
--- Dictionary memory 0.00 Mb
--- Cplex 20.1.0.1 link memory 0.43 Mb (peak 1.98 Mb)
--- Starting Cplex

Version identifier: 20.1.0.1 | 2021-04-07 | 3a818710c
CPXPARAM_Advance                                 0
CPXPARAM_Threads                                 1
CPXPARAM_MIP_Display                             4
CPXPARAM_TimeLimit                               3600
CPXPARAM_MIP_Tolerances_AbsMIPGap                0
Generic callback                                 0x50
Tried aggregator 2 times.
MIP Presolve eliminated 8321 rows and 994 columns.
Aggregator did 192 substitutions.
Reduced MIP has 8256 rows, 11104 columns, and 37379 nonzeros.
Reduced MIP has 11104 binaries, 0 generals, 0 SOSs, and 0 indicators.
Presolve time = 0.08 sec. (41.98 ticks)
Probing fixed 936 vars, tightened 0 bounds.
Probing changed sense of 58 constraints.
Probing time = 0.08 sec. (29.49 ticks)
Tried aggregator 16 times.
MIP Presolve eliminated 464 rows and 989 columns.
Aggregator did 464 substitutions.
Reduced MIP has 7328 rows, 9651 columns, and 32665 nonzeros.
Reduced MIP has 9651 binaries, 0 generals, 0 SOSs, and 0 indicators.
Presolve time = 0.62 sec. (313.15 ticks)
Probing time = 0.02 sec. (4.37 ticks)
Tried aggregator 1 time.
Detecting symmetries...
Reduced MIP has 7328 rows, 9651 columns, and 32665 nonzeros.
Reduced MIP has 9651 binaries, 0 generals, 0 SOSs, and 0 indicators.
Presolve time = 0.06 sec. (28.84 ticks)
Probing time = 0.02 sec. (4.37 ticks)
Clique table members: 24066.
MIP emphasis: balance optimality and feasibility.
MIP search method: dynamic search.
Parallel mode: none, using 1 thread.
Tried aggregator 1 time.
No LP presolve or aggregator reductions.
Presolve time = 0.02 sec. (4.25 ticks)
Initializing dual steep norms . . .

Iteration log . . .
Iteration:     1   Dual objective     =          8438.000000
Perturbation started.
Iteration:   101   Dual objective     =          8438.000000
Iteration:   477   Dual objective     =          8437.999855
Iteration:   837   Dual objective     =          8437.999755
Iteration:  1204   Dual objective     =          8437.999643
Iteration:  1575   Dual objective     =          8437.999525
Iteration:  1951   Dual objective     =          8437.999392
Iteration:  2298   Dual objective     =          8437.999315
Iteration:  2646   Dual objective     =          8437.999269
Iteration:  2983   Dual objective     =          8437.999239
Iteration:  3297   Dual objective     =          8437.999212
Iteration:  3602   Dual objective     =          8437.999193
Iteration:  3888   Dual objective     =          8437.999177
Iteration:  4166   Dual objective     =          8437.999160
Iteration:  4436   Dual objective     =          8437.999148
Iteration:  4693   Dual objective     =          8437.999135
Iteration:  4918   Dual objective     =          8437.999126
Iteration:  5073   Dual objective     =          8437.999120
Iteration:  5227   Dual objective     =          8437.999115
Iteration:  5371   Dual objective     =          8437.999111
Iteration:  5513   Dual objective     =          8437.999105
Iteration:  5655   Dual objective     =          8437.999099
Iteration:  5790   Dual objective     =          8437.999095
Iteration:  5909   Dual objective     =          8437.999093
Iteration:  6038   Dual objective     =          8437.999090
Iteration:  6161   Dual objective     =          8437.999089
Iteration:  6278   Dual objective     =          8437.999087
Iteration:  6403   Dual objective     =          8437.999086
Iteration:  6520   Dual objective     =          8437.999085
Iteration:  6635   Dual objective     =          8437.999085
Removing perturbation.

Iteration log . . .
Iteration:     1   Dual objective     =          8438.000000
Root relaxation solution time = 0.75 sec. (431.29 ticks)

        Nodes                                         Cuts/
   Node  Left     Objective  IInf  Best Integer    Best Bound    ItCnt     Gap

      0     0     8438.0000  1552                   8438.0000     6686         
      0     0     8438.0000   808                    Cuts: 27     7215         
      0     0     8438.0000   611                    Cuts: 98     8191         
      0     0     8438.0000   395                ZeroHalf: 46     8978         
      0     0     8438.0000   514                ZeroHalf: 36     9581         
      0     0     8438.0000    47                 ZeroHalf: 1     9592         
*     0+    0                         8438.0000     8438.0000             0.00%
Found incumbent of value 8438.000000 after 4.96 sec. (2766.92 ticks)
      0     0        cutoff           8438.0000     8438.0000     9592    0.00%
Elapsed time = 4.96 sec. (2766.92 ticks, tree = 0.01 MB, solutions = 1)

Zero-half cuts applied:  67
Lift and project cuts applied:  8
Gomory fractional cuts applied:  16

Root node processing (before b&c):
  Real time             =    4.96 sec. (2767.47 ticks)
Sequential b&c:
  Real time             =    0.00 sec. (0.00 ticks)
                          ------------
Total (root+branch&cut) =    4.96 sec. (2767.47 ticks)

--- MIP status (101): integer optimal solution.
--- Cplex Time: 4.96sec (det. 2767.51 ticks)

--- Fixing integer variables and solving final LP...

Version identifier: 20.1.0.1 | 2021-04-07 | 3a818710c
CPXPARAM_Advance                                 2
CPXPARAM_Threads                                 1
CPXPARAM_MIP_Display                             4
CPXPARAM_TimeLimit                               3600
CPXPARAM_MIP_Tolerances_AbsMIPGap                0
Tried aggregator 1 time.
LP Presolve eliminated 16769 rows and 12290 columns.
All rows and columns eliminated.
Presolve time = 0.02 sec. (7.09 ticks)

--- Fixed MIP status (1): optimal.
--- Cplex Time: 0.02sec (det. 12.42 ticks)


Proven optimal solution
MIP Solution:         8438.000000    (9592 iterations, 0 nodes)
Final Solve:          8438.000000    (0 iterations)

Best possible:        8438.000000
Absolute gap:            0.000000
Relative gap:            0.000000

--- Reading solution for model mymodel
--- gams_0064_002_32_04_0.67_05_0.50_0.90_21_problem.txt(6677) 9 Mb  5 secs
--- Executing after solve: elapsed 0:00:05.318
--- gams_0064_002_32_04_0.67_05_0.50_0.90_21_problem.txt(6678) 9 Mb--- gams_0064_002_32_04_0.67_05_0.50_0.90_21_problem.txt(6698) 9 Mb
--- Putfile results C:\Users\MariaSosnovskaya\Downloads\WfmGams3\problems\gams_0064_002_32_04_0.67_05_0.50_0.90_21_results.txt
*** Status: Normal completion
--- Job gams_0064_002_32_04_0.67_05_0.50_0.90_21_problem.txt Stop 02/24/21 20:07:09 elapsed 0:00:05.339
